p tw 216 387
1 18
1 116
1 117
1 201
1 202
2 85
2 86
2 170
2 171
3 126
3 171
3 172
4 115
4 198
4 199
5 65
5 66
5 99
5 159
5 160
6 79
6 80
6 142
7 84
7 85
7 169
7 170
8 64
8 127
8 211
9 131
9 132
9 184
9 185
10 73
10 74
10 134
10 135
10 189
10 190
11 137
11 138
11 195
11 196
12 136
12 137
12 215
12 216
13 70
13 71
13 206
13 207
14 78
14 79
14 208
15 143
15 144
15 168
15 169
16 110
16 111
16 188
16 189
17 133
17 134
17 190
17 191
18 22
18 118
18 119
18 203
19 124
19 125
19 161
19 162
20 87
20 88
20 177
20 178
20 204
21 67
21 68
21 125
21 126
21 163
21 164
22 120
22 121
22 203
23 140
23 141
23 197
23 198
24 87
24 174
24 175
25 146
25 147
25 175
25 176
26 88
26 89
26 204
26 205
27 105
27 106
27 166
27 167
28 108
28 109
28 210
29 110
29 186
29 187
30 103
30 104
30 165
30 166
31 135
31 136
31 192
31 193
32 82
32 83
32 160
32 161
33 89
33 90
33 182
33 183
34 111
34 112
34 187
34 188
35 90
35 91
35 183
35 184
36 81
36 82
36 158
36 159
37 93
37 94
37 185
37 186
38 60
38 155
38 156
39 156
39 209
39 210
40 127
40 128
40 180
40 181
41 95
41 96
41 193
41 194
42 97
42 98
42 199
42 200
43 147
43 148
43 178
43 179
44 64
44 65
44 211
44 212
45 76
45 77
45 107
45 108
45 209
46 48
46 202
46 203
47 122
47 123
47 157
47 158
48 129
48 130
48 151
48 152
49 148
49 149
49 179
50 68
50 69
50 213
50 214
51 145
51 173
51 174
52 150
52 181
52 182
53 144
53 145
53 167
53 168
54 114
54 115
54 196
54 197
55 99
55 100
55 162
55 163
56 138
56 139
56 216
57 146
57 176
57 177
58 149
58 150
58 180
59 141
59 142
59 200
60 194
60 195
61 74
61 75
61 113
61 114
61 191
61 192
62 71
62 72
62 101
62 102
62 164
62 165
63 92
63 93
63 153
63 154
63 207
63 208
64 65
65 66
66 67
67 68
68 69
69 70
70 71
71 72
72 73
73 74
74 75
75 76
76 77
77 78
78 79
79 80
80 98
81 82
81 157
82 83
83 84
84 85
85 86
86 172
87 88
88 89
89 90
90 91
91 92
92 93
93 94
94 95
95 96
96 97
97 98
99 100
100 101
101 102
102 103
103 104
104 105
105 106
106 107
107 108
108 109
109 173
110 111
111 112
112 113
113 114
114 115
116 117
116 201
117 118
118 119
119 120
120 121
121 122
122 123
123 124
124 125
125 126
127 128
128 129
129 130
130 131
131 132
132 133
133 134
134 135
135 136
136 137
137 138
138 139
139 140
140 141
141 142
143 144
143 151
144 145
146 147
147 148
148 149
149 150
151 152
152 153
153 154
154 155
155 156
157 158
158 159
159 160
160 161
161 162
162 163
163 164
164 165
165 166
166 167
167 168
168 169
169 170
170 171
171 172
173 174
174 175
175 176
176 177
177 178
178 179
180 181
181 182
182 183
183 184
184 185
185 186
186 187
187 188
188 189
189 190
190 191
191 192
192 193
193 194
194 195
195 196
196 197
197 198
198 199
199 200
201 202
202 203
204 205
205 206
206 207
207 208
209 210
211 212
212 213
213 214
214 215
215 216
